c Random generated cnf formula, satisfiable: true
p cnf 10 50
9 -1 7 0
-5 7 10 0
-4 5 -7 0
-9 -3 -10 0
2 -5 -3 0
10 -8 5 0
2 6 -4 0
-8 -6 -2 0
1 -9 -7 0
-2 8 -5 0
-4 1 -6 0
9 -10 2 0
6 -1 -10 0
-8 -5 -9 0
-6 -3 -7 0
9 6 4 0
-2 1 9 0
5 -8 -10 0
-8 1 7 0
-10 -8 -1 0
7 2 9 0
4 -1 -2 0
10 -5 -7 0
-2 6 -5 0
-7 5 8 0
-2 4 -1 0
1 -9 10 0
5 -3 -6 0
-4 -5 9 0
-7 -3 -6 0
8 9 -3 0
9 8 2 0
-3 7 -10 0
5 -2 4 0
-1 5 6 0
-10 7 8 0
1 6 -2 0
-5 6 1 0
-3 -4 -9 0
2 10 -6 0
-5 -10 7 0
-4 -5 -9 0
-1 -3 8 0
-2 1 9 0
9 -3 10 0
-2 9 -1 0
-6 -8 -3 0
10 7 -4 0
7 4 5 0
-3 2 4 0
